
  22   10
  10   10   10   10   10   10   10   10   10   10

   0   0   0   0   0   0   0   0   0   0   0   6 2 8 9 10 13 21 
   6  10  10  10  10  10  10  10  10  10  10   2 12 3 
   4  10  10  10  10  10  10  10  10  10  10   3 17 16 4 
   1  10  10  10  10  10  10  10  10  10  10   1 5 
   7  10  10  10  10  10  10  10  10  10  10   2 20 6 
   7  10  10  10  10  10  10  10  10  10  10   1 7 
   3  10  10  10  10  10  10  10  10  10  10   2 19 11 
   9  10  10  10  10  10  10  10  10  10  10   2 19 12 
  10  10  10  10  10  10  10  10  10  10  10   1 11 
   6  10  10  10  10  10  10  10  10  10  10   1 11 
  10  10  10  10  10  10  10  10  10  10  10   1 14 
   8  10  10  10  10  10  10  10  10  10  10   1 14 
   2  10  10  10  10  10  10  10  10  10  10   1 14 
   2  10  10  10  10  10  10  10  10  10  10   1 15 
   8  10  10  10  10  10  10  10  10  10  10   1 18 
   5  10  10  10  10  10  10  10  10  10  10   1 20 
   8  10  10  10  10  10  10  10  10  10  10   1 19 
   3  10  10  10  10  10  10  10  10  10  10   1 22
   8  10  10  10  10  10  10  10  10  10  10   1 22
  10  10  10  10  10  10  10  10  10  10  10   1 22
   1  10  10  10  10  10  10  10  10  10  10   1 22
   0   0   0   0   0   0   0   0   0   0   0   0 
